50
150
98
96
95
94
92
89
88
88
87
87
86
85
83
80
80
77
76
76
73
72
71
69
69
69
57
57
53
50
45
45
44
44
43
42
37
36
36
35
35
34
33
31
30
27
24
24
23
21
20
20
